c User generated cnf file
p cnf 7 25
7 -2 6 0 
6 4 -5 0 
3 7 -7 0 
7 -5 5 0 
5 -4 6 0 
3 -6 1 0 
6 6 -2 0 
7 4 -3 0 
5 4 -2 0 
5 2 -7 0 
2 1 -6 0 
5 1 -1 0 
1 -2 3 0 
3 3 -1 0 
7 6 -6 0 
2 -4 4 0 
6 -2 4 0 
2 -6 4 0 
6 -4 1 0 
3 -7 1 0 
5 1 -4 0 
4 7 -6 0 
6 6 -2 0 
3 -3 6 0 
3 -5 7 0 
